(set-logic ALL)
(set-option :produce-models true)
(declare-sort BoundSet 0)
(declare-sort UnboundSet 0)
(declare-fun IsPosted (BoundSet) Bool)
(declare-fun IsInCastleChurch (BoundSet) Bool)
(declare-fun IsInWittenberg (BoundSet) Bool)
(declare-fun IsBelieving (BoundSet) Bool)
(declare-fun IsSimplisticViewOfHistory (BoundSet) Bool)
(assert (not (=> (and (exists ((b BoundSet)) (exists ((c BoundSet)) (exists ((a BoundSet)) (and (IsPosted a) (and (IsInCastleChurch b) (IsInWittenberg c)))))) (forall ((d BoundSet)) (=> (IsBelieving d) (IsPosted d)))) (exists ((b BoundSet)) (exists ((a BoundSet)) (and (IsBelieving a) (not (IsSimplisticViewOfHistory b))))))))
(check-sat)
(get-model)